Executando Fernandes MODIFICADO
Rodando pra 1h
Optimize a model with 490110 rows, 734060 columns and 26882021 nonzeros
Coefficient statistics:
  Matrix range    [1e+00, 1e+07]
  Objective range [5e-01, 5e-01]
  Bounds range    [1e+00, 1e+07]
  RHS range       [1e+00, 7e+02]
Found heuristic solution: objective 36188
Presolve removed 0 rows and 0 columns (presolve time = 9s) ...
Presolve removed 1 rows and 18 columns (presolve time = 12s) ...
Presolve removed 1 rows and 18 columns (presolve time = 15s) ...
Presolve removed 1 rows and 18 columns (presolve time = 43s) ...
Presolve removed 1 rows and 18 columns (presolve time = 48s) ...
Presolve removed 1 rows and 18 columns (presolve time = 58s) ...
Presolve removed 1 rows and 18 columns (presolve time = 68s) ...
Presolve removed 1 rows and 18 columns (presolve time = 71s) ...
Presolve removed 1 rows and 18 columns (presolve time = 78s) ...
Presolve removed 1 rows and 18 columns (presolve time = 80s) ...
Presolve removed 1 rows and 18 columns (presolve time = 86s) ...
Presolve removed 1 rows and 18 columns (presolve time = 90s) ...
Presolve removed 1 rows and 18 columns (presolve time = 95s) ...
Presolve removed 1 rows and 18 columns (presolve time = 113s) ...
Presolve removed 1 rows and 18 columns (presolve time = 119s) ...
Presolve removed 1 rows and 18 columns (presolve time = 146s) ...
Presolve removed 1 rows and 18 columns
Presolve time: 146.33s
Presolved: 490109 rows, 734042 columns, 26881931 nonzeros
Variable types: 489300 continuous, 244742 integer (244740 binary)
Optimize a model with 490109 rows, 734042 columns and 26881931 nonzeros
Coefficient statistics:
  Matrix range    [7e-04, 1e+07]
  Objective range [5e-01, 5e-01]
  Bounds range    [1e+00, 7e+04]
  RHS range       [1e+00, 1e+07]

Explored 0 nodes (0 simplex iterations) in 157.09 seconds
Thread count was 1 (of 4 available processors)

Solve interrupted (error code 10001)
Best objective -, best bound -, gap -
Error code = 10001
Out of memory
